c FILE: random-n100-d60-i-n100-d60-1.col

p edge 100 2970
e 1 5
e 1 9
e 1 10
e 1 15
e 1 16
e 1 19
e 1 22
e 1 23
e 1 25
e 1 26
e 1 28
e 1 29
e 1 30
e 1 37
e 1 39
e 1 40
e 1 41
e 1 42
e 1 45
e 1 47
e 1 51
e 1 52
e 1 53
e 1 54
e 1 59
e 1 60
e 1 61
e 1 62
e 1 63
e 1 64
e 1 65
e 1 67
e 1 68
e 1 71
e 1 74
e 1 75
e 1 76
e 1 77
e 1 78
e 1 80
e 1 81
e 1 84
e 1 85
e 1 86
e 1 88
e 1 89
e 1 90
e 1 91
e 1 92
e 1 93
e 1 94
e 1 97
e 1 98
e 1 99
e 1 100
e 2 3
e 2 6
e 2 7
e 2 8
e 2 9
e 2 10
e 2 12
e 2 13
e 2 14
e 2 15
e 2 17
e 2 18
e 2 20
e 2 21
e 2 24
e 2 26
e 2 27
e 2 30
e 2 31
e 2 32
e 2 33
e 2 34
e 2 36
e 2 37
e 2 38
e 2 42
e 2 43
e 2 45
e 2 46
e 2 47
e 2 51
e 2 52
e 2 53
e 2 54
e 2 55
e 2 56
e 2 57
e 2 58
e 2 61
e 2 62
e 2 63
e 2 64
e 2 65
e 2 67
e 2 68
e 2 69
e 2 72
e 2 75
e 2 76
e 2 77
e 2 79
e 2 80
e 2 81
e 2 82
e 2 83
e 2 84
e 2 85
e 2 86
e 2 87
e 2 88
e 2 90
e 2 91
e 2 92
e 2 95
e 2 98
e 2 100
e 3 4
e 3 5
e 3 6
e 3 8
e 3 10
e 3 11
e 3 13
e 3 14
e 3 16
e 3 19
e 3 20
e 3 21
e 3 22
e 3 23
e 3 24
e 3 26
e 3 27
e 3 28
e 3 29
e 3 30
e 3 31
e 3 33
e 3 34
e 3 35
e 3 36
e 3 39
e 3 40
e 3 42
e 3 43
e 3 44
e 3 45
e 3 46
e 3 47
e 3 48
e 3 49
e 3 50
e 3 53
e 3 55
e 3 59
e 3 60
e 3 62
e 3 63
e 3 64
e 3 65
e 3 66
e 3 69
e 3 71
e 3 73
e 3 74
e 3 75
e 3 76
e 3 77
e 3 80
e 3 81
e 3 84
e 3 85
e 3 86
e 3 87
e 3 89
e 3 93
e 3 94
e 3 95
e 3 96
e 3 98
e 3 99
e 4 8
e 4 9
e 4 10
e 4 11
e 4 12
e 4 14
e 4 17
e 4 18
e 4 20
e 4 22
e 4 23
e 4 24
e 4 26
e 4 27
e 4 28
e 4 31
e 4 33
e 4 34
e 4 39
e 4 40
e 4 41
e 4 42
e 4 46
e 4 47
e 4 48
e 4 49
e 4 50
e 4 51
e 4 52
e 4 53
e 4 54
e 4 55
e 4 56
e 4 57
e 4 59
e 4 60
e 4 62
e 4 64
e 4 66
e 4 69
e 4 71
e 4 72
e 4 73
e 4 75
e 4 77
e 4 78
e 4 79
e 4 83
e 4 86
e 4 88
e 4 89
e 4 91
e 4 92
e 4 93
e 4 95
e 4 96
e 4 97
e 4 98
e 4 100
e 5 6
e 5 7
e 5 8
e 5 10
e 5 11
e 5 12
e 5 14
e 5 17
e 5 19
e 5 20
e 5 22
e 5 23
e 5 24
e 5 25
e 5 26
e 5 28
e 5 29
e 5 30
e 5 31
e 5 32
e 5 33
e 5 34
e 5 36
e 5 39
e 5 45
e 5 46
e 5 47
e 5 48
e 5 52
e 5 55
e 5 56
e 5 58
e 5 60
e 5 61
e 5 66
e 5 67
e 5 69
e 5 71
e 5 73
e 5 75
e 5 76
e 5 77
e 5 78
e 5 80
e 5 81
e 5 82
e 5 83
e 5 84
e 5 85
e 5 89
e 5 90
e 5 91
e 5 95
e 5 96
e 5 97
e 5 99
e 5 100
e 6 7
e 6 8
e 6 9
e 6 10
e 6 11
e 6 12
e 6 14
e 6 15
e 6 17
e 6 19
e 6 20
e 6 21
e 6 22
e 6 23
e 6 24
e 6 27
e 6 28
e 6 29
e 6 32
e 6 33
e 6 34
e 6 35
e 6 36
e 6 38
e 6 39
e 6 41
e 6 42
e 6 44
e 6 45
e 6 46
e 6 47
e 6 48
e 6 49
e 6 51
e 6 53
e 6 55
e 6 56
e 6 61
e 6 64
e 6 65
e 6 67
e 6 69
e 6 71
e 6 72
e 6 74
e 6 75
e 6 76
e 6 77
e 6 78
e 6 79
e 6 81
e 6 82
e 6 85
e 6 86
e 6 87
e 6 88
e 6 89
e 6 91
e 6 92
e 6 95
e 6 98
e 6 99
e 7 8
e 7 12
e 7 14
e 7 15
e 7 16
e 7 17
e 7 18
e 7 20
e 7 21
e 7 22
e 7 23
e 7 24
e 7 25
e 7 28
e 7 29
e 7 30
e 7 33
e 7 34
e 7 35
e 7 36
e 7 37
e 7 38
e 7 40
e 7 41
e 7 42
e 7 44
e 7 46
e 7 49
e 7 50
e 7 52
e 7 53
e 7 55
e 7 57
e 7 59
e 7 60
e 7 65
e 7 67
e 7 68
e 7 69
e 7 71
e 7 72
e 7 78
e 7 80
e 7 81
e 7 82
e 7 83
e 7 85
e 7 86
e 7 87
e 7 88
e 7 89
e 7 90
e 7 95
e 7 96
e 7 97
e 7 98
e 7 100
e 8 9
e 8 12
e 8 13
e 8 14
e 8 16
e 8 19
e 8 20
e 8 22
e 8 25
e 8 26
e 8 28
e 8 30
e 8 32
e 8 33
e 8 34
e 8 35
e 8 36
e 8 37
e 8 38
e 8 39
e 8 43
e 8 44
e 8 48
e 8 50
e 8 52
e 8 53
e 8 54
e 8 56
e 8 57
e 8 59
e 8 60
e 8 62
e 8 63
e 8 65
e 8 66
e 8 69
e 8 71
e 8 74
e 8 80
e 8 85
e 8 86
e 8 87
e 8 88
e 8 89
e 8 90
e 8 91
e 8 92
e 8 93
e 8 97
e 8 98
e 8 99
e 9 10
e 9 11
e 9 12
e 9 13
e 9 14
e 9 15
e 9 16
e 9 17
e 9 19
e 9 20
e 9 21
e 9 25
e 9 26
e 9 28
e 9 29
e 9 31
e 9 34
e 9 40
e 9 41
e 9 42
e 9 46
e 9 47
e 9 48
e 9 49
e 9 50
e 9 51
e 9 53
e 9 54
e 9 55
e 9 57
e 9 59
e 9 61
e 9 62
e 9 63
e 9 64
e 9 66
e 9 67
e 9 68
e 9 70
e 9 71
e 9 72
e 9 73
e 9 74
e 9 78
e 9 79
e 9 80
e 9 81
e 9 82
e 9 83
e 9 84
e 9 85
e 9 87
e 9 88
e 9 93
e 9 94
e 9 96
e 9 97
e 9 98
e 9 99
e 9 100
e 10 12
e 10 13
e 10 15
e 10 16
e 10 17
e 10 18
e 10 21
e 10 22
e 10 23
e 10 24
e 10 25
e 10 26
e 10 27
e 10 28
e 10 30
e 10 31
e 10 33
e 10 34
e 10 36
e 10 39
e 10 41
e 10 43
e 10 46
e 10 49
e 10 50
e 10 51
e 10 52
e 10 53
e 10 54
e 10 55
e 10 61
e 10 62
e 10 64
e 10 65
e 10 66
e 10 70
e 10 71
e 10 72
e 10 73
e 10 74
e 10 75
e 10 76
e 10 77
e 10 79
e 10 80
e 10 81
e 10 83
e 10 90
e 10 91
e 10 94
e 10 95
e 10 96
e 10 99
e 11 12
e 11 13
e 11 15
e 11 16
e 11 17
e 11 18
e 11 19
e 11 21
e 11 23
e 11 26
e 11 30
e 11 32
e 11 36
e 11 38
e 11 40
e 11 42
e 11 44
e 11 46
e 11 47
e 11 52
e 11 53
e 11 54
e 11 55
e 11 57
e 11 58
e 11 60
e 11 64
e 11 65
e 11 67
e 11 68
e 11 73
e 11 74
e 11 75
e 11 76
e 11 77
e 11 78
e 11 79
e 11 80
e 11 81
e 11 84
e 11 85
e 11 88
e 11 91
e 11 95
e 11 96
e 11 97
e 11 100
e 12 13
e 12 17
e 12 20
e 12 21
e 12 22
e 12 24
e 12 25
e 12 26
e 12 27
e 12 28
e 12 30
e 12 31
e 12 32
e 12 34
e 12 35
e 12 37
e 12 40
e 12 46
e 12 47
e 12 51
e 12 54
e 12 55
e 12 56
e 12 58
e 12 60
e 12 62
e 12 65
e 12 67
e 12 68
e 12 70
e 12 71
e 12 75
e 12 78
e 12 79
e 12 80
e 12 82
e 12 87
e 12 88
e 12 90
e 12 91
e 12 94
e 12 95
e 12 97
e 12 100
e 13 14
e 13 16
e 13 18
e 13 19
e 13 21
e 13 22
e 13 23
e 13 24
e 13 25
e 13 26
e 13 28
e 13 29
e 13 30
e 13 33
e 13 34
e 13 38
e 13 39
e 13 40
e 13 42
e 13 49
e 13 52
e 13 53
e 13 55
e 13 56
e 13 59
e 13 60
e 13 62
e 13 64
e 13 66
e 13 67
e 13 70
e 13 72
e 13 74
e 13 75
e 13 76
e 13 77
e 13 79
e 13 80
e 13 82
e 13 83
e 13 86
e 13 87
e 13 89
e 13 90
e 13 91
e 13 93
e 13 94
e 13 95
e 13 96
e 13 97
e 13 98
e 13 99
e 13 100
e 14 15
e 14 16
e 14 18
e 14 20
e 14 22
e 14 24
e 14 25
e 14 26
e 14 27
e 14 28
e 14 29
e 14 30
e 14 31
e 14 33
e 14 34
e 14 35
e 14 36
e 14 37
e 14 39
e 14 40
e 14 41
e 14 42
e 14 44
e 14 45
e 14 46
e 14 48
e 14 50
e 14 51
e 14 52
e 14 53
e 14 54
e 14 58
e 14 59
e 14 62
e 14 63
e 14 66
e 14 69
e 14 70
e 14 71
e 14 72
e 14 73
e 14 75
e 14 76
e 14 77
e 14 80
e 14 81
e 14 82
e 14 83
e 14 86
e 14 88
e 14 90
e 14 94
e 14 95
e 14 96
e 14 97
e 14 100
e 15 16
e 15 17
e 15 19
e 15 20
e 15 21
e 15 24
e 15 26
e 15 28
e 15 30
e 15 33
e 15 34
e 15 35
e 15 36
e 15 38
e 15 39
e 15 40
e 15 41
e 15 42
e 15 45
e 15 46
e 15 51
e 15 53
e 15 55
e 15 56
e 15 58
e 15 60
e 15 62
e 15 63
e 15 65
e 15 66
e 15 67
e 15 70
e 15 71
e 15 72
e 15 73
e 15 75
e 15 76
e 15 77
e 15 78
e 15 79
e 15 80
e 15 82
e 15 83
e 15 84
e 15 85
e 15 89
e 15 90
e 15 91
e 15 92
e 15 94
e 15 96
e 15 97
e 15 98
e 15 99
e 15 100
e 16 17
e 16 19
e 16 22
e 16 23
e 16 24
e 16 25
e 16 26
e 16 31
e 16 32
e 16 34
e 16 35
e 16 37
e 16 38
e 16 39
e 16 41
e 16 42
e 16 43
e 16 46
e 16 47
e 16 48
e 16 49
e 16 54
e 16 56
e 16 57
e 16 61
e 16 62
e 16 63
e 16 64
e 16 66
e 16 69
e 16 71
e 16 72
e 16 73
e 16 75
e 16 78
e 16 79
e 16 81
e 16 83
e 16 84
e 16 85
e 16 86
e 16 87
e 16 88
e 16 90
e 16 94
e 16 95
e 16 97
e 16 99
e 16 100
e 17 21
e 17 22
e 17 23
e 17 24
e 17 25
e 17 26
e 17 28
e 17 29
e 17 30
e 17 34
e 17 37
e 17 39
e 17 41
e 17 42
e 17 43
e 17 47
e 17 49
e 17 50
e 17 51
e 17 55
e 17 57
e 17 58
e 17 60
e 17 61
e 17 62
e 17 63
e 17 65
e 17 67
e 17 69
e 17 72
e 17 74
e 17 75
e 17 76
e 17 78
e 17 79
e 17 80
e 17 82
e 17 83
e 17 84
e 17 85
e 17 89
e 17 90
e 17 92
e 17 93
e 17 94
e 17 96
e 17 100
e 18 19
e 18 21
e 18 22
e 18 23
e 18 24
e 18 25
e 18 26
e 18 27
e 18 29
e 18 30
e 18 31
e 18 34
e 18 36
e 18 37
e 18 38
e 18 39
e 18 40
e 18 44
e 18 46
e 18 47
e 18 48
e 18 49
e 18 50
e 18 51
e 18 52
e 18 53
e 18 55
e 18 58
e 18 59
e 18 60
e 18 61
e 18 66
e 18 69
e 18 72
e 18 73
e 18 74
e 18 75
e 18 78
e 18 82
e 18 83
e 18 84
e 18 87
e 18 88
e 18 89
e 18 90
e 18 91
e 18 92
e 18 93
e 18 94
e 18 95
e 18 97
e 18 98
e 18 100
e 19 21
e 19 23
e 19 24
e 19 25
e 19 26
e 19 29
e 19 30
e 19 31
e 19 33
e 19 34
e 19 37
e 19 41
e 19 42
e 19 44
e 19 45
e 19 47
e 19 48
e 19 50
e 19 51
e 19 52
e 19 53
e 19 57
e 19 58
e 19 62
e 19 66
e 19 70
e 19 72
e 19 73
e 19 76
e 19 77
e 19 78
e 19 80
e 19 81
e 19 84
e 19 85
e 19 86
e 19 87
e 19 88
e 19 89
e 19 91
e 19 92
e 19 93
e 19 94
e 19 96
e 19 97
e 19 98
e 19 99
e 20 21
e 20 22
e 20 23
e 20 24
e 20 25
e 20 26
e 20 27
e 20 28
e 20 31
e 20 33
e 20 35
e 20 36
e 20 38
e 20 40
e 20 43
e 20 46
e 20 49
e 20 50
e 20 51
e 20 52
e 20 53
e 20 54
e 20 55
e 20 58
e 20 59
e 20 60
e 20 62
e 20 63
e 20 64
e 20 66
e 20 67
e 20 70
e 20 73
e 20 74
e 20 76
e 20 78
e 20 79
e 20 80
e 20 81
e 20 82
e 20 83
e 20 84
e 20 85
e 20 86
e 20 88
e 20 89
e 20 91
e 20 92
e 20 93
e 20 96
e 20 97
e 20 98
e 21 22
e 21 24
e 21 25
e 21 26
e 21 27
e 21 28
e 21 29
e 21 30
e 21 32
e 21 33
e 21 36
e 21 39
e 21 40
e 21 41
e 21 43
e 21 45
e 21 48
e 21 49
e 21 50
e 21 53
e 21 55
e 21 57
e 21 58
e 21 59
e 21 60
e 21 61
e 21 63
e 21 65
e 21 66
e 21 67
e 21 68
e 21 71
e 21 72
e 21 73
e 21 74
e 21 76
e 21 77
e 21 78
e 21 81
e 21 82
e 21 83
e 21 84
e 21 85
e 21 87
e 21 89
e 21 91
e 21 92
e 21 93
e 21 94
e 21 96
e 22 23
e 22 24
e 22 26
e 22 27
e 22 28
e 22 29
e 22 33
e 22 36
e 22 37
e 22 38
e 22 39
e 22 40
e 22 41
e 22 42
e 22 43
e 22 45
e 22 47
e 22 53
e 22 54
e 22 55
e 22 60
e 22 62
e 22 63
e 22 64
e 22 65
e 22 67
e 22 68
e 22 69
e 22 71
e 22 72
e 22 74
e 22 75
e 22 76
e 22 78
e 22 80
e 22 81
e 22 82
e 22 83
e 22 86
e 22 88
e 22 89
e 22 90
e 22 96
e 22 97
e 22 98
e 22 100
e 23 24
e 23 26
e 23 28
e 23 29
e 23 30
e 23 31
e 23 32
e 23 33
e 23 34
e 23 35
e 23 36
e 23 38
e 23 39
e 23 40
e 23 42
e 23 44
e 23 45
e 23 46
e 23 47
e 23 48
e 23 49
e 23 50
e 23 51
e 23 53
e 23 55
e 23 56
e 23 57
e 23 60
e 23 61
e 23 66
e 23 67
e 23 69
e 23 70
e 23 71
e 23 72
e 23 73
e 23 74
e 23 76
e 23 77
e 23 78
e 23 80
e 23 83
e 23 85
e 23 88
e 23 89
e 23 90
e 23 92
e 23 93
e 23 94
e 23 100
e 24 25
e 24 27
e 24 30
e 24 31
e 24 33
e 24 34
e 24 35
e 24 36
e 24 37
e 24 38
e 24 41
e 24 42
e 24 43
e 24 44
e 24 45
e 24 46
e 24 47
e 24 48
e 24 49
e 24 51
e 24 52
e 24 53
e 24 54
e 24 55
e 24 56
e 24 57
e 24 58
e 24 59
e 24 60
e 24 61
e 24 62
e 24 63
e 24 64
e 24 65
e 24 66
e 24 67
e 24 69
e 24 71
e 24 72
e 24 74
e 24 75
e 24 78
e 24 80
e 24 81
e 24 82
e 24 83
e 24 87
e 24 88
e 24 89
e 24 90
e 24 91
e 24 92
e 24 93
e 24 98
e 25 26
e 25 27
e 25 30
e 25 31
e 25 32
e 25 33
e 25 34
e 25 35
e 25 36
e 25 37
e 25 39
e 25 41
e 25 42
e 25 43
e 25 45
e 25 47
e 25 49
e 25 52
e 25 54
e 25 56
e 25 60
e 25 61
e 25 63
e 25 65
e 25 66
e 25 67
e 25 71
e 25 73
e 25 74
e 25 77
e 25 82
e 25 84
e 25 86
e 25 87
e 25 88
e 25 89
e 25 91
e 25 93
e 25 94
e 25 95
e 25 96
e 25 97
e 25 98
e 25 100
e 26 27
e 26 28
e 26 29
e 26 32
e 26 33
e 26 37
e 26 40
e 26 44
e 26 46
e 26 47
e 26 48
e 26 49
e 26 50
e 26 53
e 26 55
e 26 56
e 26 57
e 26 60
e 26 61
e 26 63
e 26 64
e 26 66
e 26 67
e 26 68
e 26 70
e 26 71
e 26 72
e 26 74
e 26 75
e 26 76
e 26 78
e 26 80
e 26 81
e 26 83
e 26 84
e 26 85
e 26 86
e 26 88
e 26 89
e 26 90
e 26 93
e 26 94
e 26 95
e 26 96
e 26 97
e 26 98
e 26 99
e 26 100
e 27 29
e 27 30
e 27 31
e 27 34
e 27 35
e 27 37
e 27 38
e 27 41
e 27 43
e 27 47
e 27 49
e 27 51
e 27 52
e 27 55
e 27 58
e 27 59
e 27 61
e 27 62
e 27 64
e 27 67
e 27 68
e 27 69
e 27 71
e 27 73
e 27 75
e 27 77
e 27 79
e 27 80
e 27 82
e 27 84
e 27 86
e 27 88
e 27 89
e 27 90
e 27 93
e 27 94
e 27 96
e 27 99
e 27 100
e 28 29
e 28 30
e 28 31
e 28 32
e 28 35
e 28 37
e 28 39
e 28 40
e 28 42
e 28 43
e 28 44
e 28 46
e 28 47
e 28 48
e 28 49
e 28 54
e 28 56
e 28 57
e 28 60
e 28 62
e 28 63
e 28 64
e 28 67
e 28 69
e 28 71
e 28 72
e 28 74
e 28 76
e 28 78
e 28 80
e 28 81
e 28 82
e 28 86
e 28 87
e 28 88
e 28 92
e 28 95
e 28 96
e 28 97
e 29 31
e 29 33
e 29 34
e 29 35
e 29 36
e 29 37
e 29 38
e 29 43
e 29 44
e 29 47
e 29 48
e 29 49
e 29 50
e 29 51
e 29 53
e 29 54
e 29 59
e 29 61
e 29 63
e 29 64
e 29 67
e 29 68
e 29 69
e 29 70
e 29 71
e 29 72
e 29 73
e 29 81
e 29 83
e 29 84
e 29 85
e 29 86
e 29 87
e 29 90
e 29 91
e 29 93
e 29 94
e 29 95
e 29 97
e 29 98
e 29 99
e 29 100
e 30 32
e 30 33
e 30 34
e 30 36
e 30 40
e 30 41
e 30 42
e 30 44
e 30 46
e 30 48
e 30 51
e 30 53
e 30 58
e 30 61
e 30 62
e 30 63
e 30 65
e 30 67
e 30 69
e 30 70
e 30 71
e 30 73
e 30 74
e 30 75
e 30 76
e 30 80
e 30 81
e 30 84
e 30 86
e 30 87
e 30 88
e 30 90
e 30 93
e 30 94
e 30 97
e 30 98
e 30 99
e 30 100
e 31 39
e 31 40
e 31 41
e 31 42
e 31 43
e 31 44
e 31 46
e 31 48
e 31 49
e 31 50
e 31 51
e 31 53
e 31 54
e 31 55
e 31 56
e 31 57
e 31 58
e 31 59
e 31 61
e 31 62
e 31 63
e 31 64
e 31 66
e 31 67
e 31 68
e 31 69
e 31 70
e 31 77
e 31 78
e 31 79
e 31 80
e 31 81
e 31 82
e 31 83
e 31 87
e 31 88
e 31 89
e 31 91
e 31 92
e 31 93
e 31 94
e 31 96
e 31 97
e 31 99
e 32 33
e 32 38
e 32 39
e 32 40
e 32 42
e 32 43
e 32 44
e 32 45
e 32 46
e 32 47
e 32 50
e 32 51
e 32 52
e 32 53
e 32 55
e 32 57
e 32 60
e 32 61
e 32 65
e 32 66
e 32 67
e 32 69
e 32 71
e 32 72
e 32 74
e 32 76
e 32 79
e 32 80
e 32 81
e 32 82
e 32 83
e 32 84
e 32 85
e 32 86
e 32 87
e 32 88
e 32 89
e 32 94
e 32 95
e 32 96
e 32 97
e 32 98
e 32 99
e 33 35
e 33 36
e 33 39
e 33 42
e 33 43
e 33 44
e 33 46
e 33 47
e 33 48
e 33 49
e 33 51
e 33 52
e 33 53
e 33 54
e 33 56
e 33 58
e 33 60
e 33 65
e 33 67
e 33 68
e 33 70
e 33 72
e 33 74
e 33 76
e 33 77
e 33 78
e 33 79
e 33 80
e 33 82
e 33 83
e 33 85
e 33 86
e 33 89
e 33 92
e 33 93
e 33 94
e 33 95
e 33 96
e 33 100
e 34 37
e 34 40
e 34 42
e 34 46
e 34 48
e 34 49
e 34 50
e 34 53
e 34 54
e 34 55
e 34 56
e 34 57
e 34 59
e 34 60
e 34 61
e 34 62
e 34 63
e 34 64
e 34 65
e 34 66
e 34 67
e 34 69
e 34 70
e 34 72
e 34 73
e 34 74
e 34 75
e 34 78
e 34 79
e 34 80
e 34 81
e 34 82
e 34 84
e 34 85
e 34 87
e 34 89
e 34 92
e 34 94
e 34 95
e 34 96
e 34 97
e 34 98
e 34 99
e 34 100
e 35 39
e 35 40
e 35 41
e 35 42
e 35 43
e 35 44
e 35 46
e 35 47
e 35 48
e 35 49
e 35 50
e 35 52
e 35 55
e 35 57
e 35 58
e 35 59
e 35 60
e 35 64
e 35 65
e 35 66
e 35 68
e 35 69
e 35 71
e 35 72
e 35 73
e 35 74
e 35 76
e 35 78
e 35 79
e 35 81
e 35 82
e 35 84
e 35 85
e 35 86
e 35 87
e 35 88
e 35 89
e 35 90
e 35 91
e 35 92
e 35 93
e 35 94
e 35 95
e 35 97
e 35 98
e 35 99
e 35 100
e 36 40
e 36 42
e 36 44
e 36 45
e 36 46
e 36 47
e 36 50
e 36 51
e 36 52
e 36 56
e 36 58
e 36 60
e 36 61
e 36 63
e 36 67
e 36 68
e 36 69
e 36 70
e 36 71
e 36 72
e 36 74
e 36 75
e 36 78
e 36 82
e 36 83
e 36 85
e 36 87
e 36 88
e 36 89
e 36 91
e 36 93
e 36 95
e 36 98
e 36 99
e 36 100
e 37 38
e 37 39
e 37 40
e 37 41
e 37 42
e 37 43
e 37 45
e 37 46
e 37 50
e 37 51
e 37 52
e 37 53
e 37 55
e 37 57
e 37 60
e 37 62
e 37 63
e 37 66
e 37 67
e 37 69
e 37 72
e 37 73
e 37 75
e 37 77
e 37 78
e 37 79
e 37 80
e 37 81
e 37 83
e 37 85
e 37 87
e 37 88
e 37 90
e 37 91
e 37 92
e 37 94
e 37 97
e 37 99
e 37 100
e 38 39
e 38 40
e 38 41
e 38 43
e 38 44
e 38 47
e 38 48
e 38 49
e 38 53
e 38 55
e 38 56
e 38 57
e 38 58
e 38 59
e 38 60
e 38 64
e 38 65
e 38 66
e 38 67
e 38 68
e 38 70
e 38 72
e 38 73
e 38 74
e 38 76
e 38 86
e 38 89
e 38 95
e 38 97
e 38 98
e 38 99
e 39 43
e 39 45
e 39 46
e 39 47
e 39 48
e 39 49
e 39 50
e 39 51
e 39 53
e 39 54
e 39 55
e 39 56
e 39 57
e 39 60
e 39 61
e 39 64
e 39 65
e 39 68
e 39 69
e 39 70
e 39 72
e 39 73
e 39 74
e 39 76
e 39 77
e 39 78
e 39 79
e 39 80
e 39 81
e 39 83
e 39 87
e 39 88
e 39 89
e 39 92
e 39 94
e 39 95
e 39 96
e 39 97
e 39 98
e 40 41
e 40 43
e 40 46
e 40 47
e 40 53
e 40 57
e 40 58
e 40 61
e 40 62
e 40 67
e 40 68
e 40 69
e 40 70
e 40 71
e 40 72
e 40 73
e 40 79
e 40 80
e 40 83
e 40 85
e 40 89
e 40 92
e 40 93
e 40 94
e 40 96
e 40 98
e 41 42
e 41 44
e 41 45
e 41 46
e 41 48
e 41 49
e 41 52
e 41 53
e 41 55
e 41 56
e 41 57
e 41 58
e 41 60
e 41 61
e 41 62
e 41 63
e 41 65
e 41 66
e 41 67
e 41 68
e 41 69
e 41 70
e 41 71
e 41 72
e 41 73
e 41 74
e 41 77
e 41 79
e 41 81
e 41 83
e 41 85
e 41 86
e 41 87
e 41 90
e 41 95
e 41 97
e 41 98
e 41 100
e 42 44
e 42 45
e 42 46
e 42 47
e 42 50
e 42 52
e 42 53
e 42 54
e 42 56
e 42 57
e 42 59
e 42 60
e 42 61
e 42 62
e 42 63
e 42 64
e 42 66
e 42 67
e 42 68
e 42 69
e 42 70
e 42 72
e 42 73
e 42 75
e 42 77
e 42 79
e 42 80
e 42 81
e 42 83
e 42 84
e 42 86
e 42 87
e 42 88
e 42 89
e 42 90
e 42 91
e 42 92
e 42 94
e 42 95
e 42 96
e 42 97
e 42 99
e 42 100
e 43 50
e 43 51
e 43 52
e 43 53
e 43 54
e 43 55
e 43 58
e 43 62
e 43 65
e 43 66
e 43 67
e 43 68
e 43 69
e 43 70
e 43 72
e 43 73
e 43 75
e 43 76
e 43 79
e 43 81
e 43 84
e 43 85
e 43 87
e 43 88
e 43 90
e 43 92
e 43 93
e 43 95
e 43 97
e 43 98
e 43 99
e 44 48
e 44 49
e 44 50
e 44 51
e 44 53
e 44 54
e 44 55
e 44 57
e 44 60
e 44 62
e 44 63
e 44 64
e 44 65
e 44 66
e 44 67
e 44 68
e 44 69
e 44 71
e 44 73
e 44 74
e 44 75
e 44 79
e 44 80
e 44 81
e 44 82
e 44 83
e 44 84
e 44 85
e 44 88
e 44 89
e 44 92
e 44 94
e 44 95
e 44 96
e 44 98
e 44 99
e 44 100
e 45 46
e 45 48
e 45 51
e 45 53
e 45 55
e 45 56
e 45 57
e 45 59
e 45 63
e 45 67
e 45 68
e 45 72
e 45 73
e 45 74
e 45 75
e 45 76
e 45 77
e 45 79
e 45 80
e 45 82
e 45 83
e 45 88
e 45 89
e 45 90
e 45 91
e 45 95
e 45 98
e 45 100
e 46 47
e 46 48
e 46 50
e 46 52
e 46 53
e 46 54
e 46 55
e 46 57
e 46 58
e 46 59
e 46 60
e 46 61
e 46 62
e 46 64
e 46 71
e 46 72
e 46 74
e 46 77
e 46 78
e 46 79
e 46 80
e 46 82
e 46 83
e 46 85
e 46 86
e 46 87
e 46 88
e 46 90
e 46 91
e 46 93
e 46 95
e 46 96
e 46 97
e 46 100
e 47 48
e 47 50
e 47 51
e 47 55
e 47 56
e 47 59
e 47 60
e 47 61
e 47 64
e 47 67
e 47 68
e 47 69
e 47 70
e 47 71
e 47 75
e 47 76
e 47 77
e 47 78
e 47 79
e 47 82
e 47 84
e 47 86
e 47 87
e 47 88
e 47 90
e 47 92
e 47 93
e 47 95
e 47 99
e 48 49
e 48 50
e 48 51
e 48 54
e 48 55
e 48 57
e 48 58
e 48 60
e 48 62
e 48 65
e 48 66
e 48 68
e 48 69
e 48 70
e 48 71
e 48 74
e 48 75
e 48 77
e 48 80
e 48 81
e 48 82
e 48 84
e 48 86
e 48 87
e 48 89
e 48 90
e 48 94
e 48 95
e 48 97
e 48 98
e 49 50
e 49 51
e 49 52
e 49 54
e 49 55
e 49 56
e 49 57
e 49 61
e 49 67
e 49 68
e 49 69
e 49 71
e 49 72
e 49 73
e 49 75
e 49 76
e 49 78
e 49 79
e 49 80
e 49 81
e 49 84
e 49 85
e 49 86
e 49 88
e 49 89
e 49 91
e 49 94
e 49 97
e 49 98
e 49 100
e 50 51
e 50 54
e 50 55
e 50 58
e 50 59
e 50 60
e 50 62
e 50 63
e 50 64
e 50 65
e 50 68
e 50 70
e 50 71
e 50 72
e 50 73
e 50 74
e 50 75
e 50 76
e 50 77
e 50 78
e 50 83
e 50 85
e 50 86
e 50 89
e 50 90
e 50 91
e 50 96
e 50 97
e 51 53
e 51 55
e 51 57
e 51 58
e 51 61
e 51 62
e 51 65
e 51 67
e 51 68
e 51 70
e 51 71
e 51 73
e 51 74
e 51 77
e 51 81
e 51 82
e 51 83
e 51 86
e 51 92
e 51 93
e 51 94
e 51 96
e 51 98
e 52 53
e 52 54
e 52 56
e 52 59
e 52 60
e 52 61
e 52 62
e 52 64
e 52 66
e 52 68
e 52 73
e 52 75
e 52 79
e 52 80
e 52 81
e 52 83
e 52 85
e 52 87
e 52 89
e 52 90
e 52 91
e 52 92
e 52 93
e 52 95
e 52 98
e 53 55
e 53 56
e 53 57
e 53 58
e 53 59
e 53 60
e 53 61
e 53 63
e 53 64
e 53 66
e 53 67
e 53 68
e 53 69
e 53 70
e 53 73
e 53 76
e 53 77
e 53 78
e 53 80
e 53 81
e 53 83
e 53 84
e 53 85
e 53 88
e 53 91
e 53 93
e 53 95
e 53 96
e 53 97
e 53 98
e 53 99
e 54 57
e 54 59
e 54 61
e 54 62
e 54 63
e 54 64
e 54 71
e 54 73
e 54 75
e 54 78
e 54 80
e 54 81
e 54 83
e 54 84
e 54 86
e 54 88
e 54 90
e 54 98
e 54 99
e 54 100
e 55 56
e 55 57
e 55 58
e 55 60
e 55 61
e 55 62
e 55 63
e 55 67
e 55 68
e 55 71
e 55 73
e 55 74
e 55 75
e 55 76
e 55 78
e 55 79
e 55 80
e 55 83
e 55 85
e 55 87
e 55 89
e 55 90
e 55 92
e 55 94
e 55 95
e 55 96
e 55 98
e 55 99
e 56 60
e 56 62
e 56 64
e 56 68
e 56 70
e 56 71
e 56 72
e 56 73
e 56 75
e 56 78
e 56 79
e 56 80
e 56 81
e 56 83
e 56 84
e 56 85
e 56 86
e 56 87
e 56 89
e 56 90
e 56 91
e 56 93
e 56 94
e 56 95
e 56 96
e 56 97
e 57 58
e 57 59
e 57 60
e 57 61
e 57 63
e 57 68
e 57 70
e 57 71
e 57 72
e 57 73
e 57 74
e 57 75
e 57 78
e 57 79
e 57 80
e 57 83
e 57 84
e 57 86
e 57 88
e 57 89
e 57 90
e 57 92
e 57 95
e 57 97
e 57 100
e 58 62
e 58 64
e 58 65
e 58 66
e 58 68
e 58 70
e 58 72
e 58 73
e 58 74
e 58 75
e 58 76
e 58 77
e 58 78
e 58 79
e 58 80
e 58 81
e 58 83
e 58 85
e 58 88
e 58 89
e 58 92
e 58 94
e 58 97
e 58 100
e 59 61
e 59 62
e 59 63
e 59 64
e 59 65
e 59 66
e 59 69
e 59 70
e 59 72
e 59 75
e 59 76
e 59 77
e 59 79
e 59 80
e 59 81
e 59 83
e 59 85
e 59 89
e 59 91
e 59 93
e 59 97
e 59 98
e 60 61
e 60 63
e 60 64
e 60 65
e 60 66
e 60 67
e 60 68
e 60 69
e 60 71
e 60 72
e 60 74
e 60 75
e 60 78
e 60 79
e 60 80
e 60 81
e 60 82
e 60 83
e 60 85
e 60 87
e 60 89
e 60 91
e 60 94
e 60 96
e 60 100
e 61 62
e 61 63
e 61 64
e 61 67
e 61 70
e 61 71
e 61 72
e 61 74
e 61 75
e 61 76
e 61 77
e 61 79
e 61 80
e 61 82
e 61 83
e 61 88
e 61 89
e 61 90
e 61 94
e 61 95
e 61 96
e 62 63
e 62 65
e 62 67
e 62 68
e 62 69
e 62 70
e 62 72
e 62 73
e 62 76
e 62 79
e 62 80
e 62 81
e 62 82
e 62 84
e 62 85
e 62 89
e 62 90
e 62 93
e 62 94
e 62 95
e 62 97
e 62 98
e 62 99
e 63 64
e 63 65
e 63 66
e 63 70
e 63 74
e 63 76
e 63 78
e 63 84
e 63 86
e 63 87
e 63 88
e 63 90
e 63 91
e 63 92
e 63 93
e 63 94
e 63 95
e 63 97
e 63 99
e 63 100
e 64 68
e 64 69
e 64 71
e 64 74
e 64 75
e 64 76
e 64 77
e 64 78
e 64 79
e 64 81
e 64 82
e 64 83
e 64 84
e 64 85
e 64 89
e 64 90
e 64 91
e 64 93
e 64 94
e 64 95
e 64 96
e 64 97
e 64 98
e 64 99
e 64 100
e 65 66
e 65 67
e 65 68
e 65 70
e 65 71
e 65 74
e 65 80
e 65 81
e 65 82
e 65 83
e 65 85
e 65 86
e 65 87
e 65 91
e 65 93
e 65 94
e 65 95
e 65 96
e 65 98
e 65 100
e 66 69
e 66 70
e 66 71
e 66 72
e 66 73
e 66 74
e 66 77
e 66 78
e 66 79
e 66 80
e 66 84
e 66 85
e 66 88
e 66 92
e 66 94
e 66 96
e 66 98
e 66 100
e 67 68
e 67 70
e 67 71
e 67 72
e 67 73
e 67 74
e 67 79
e 67 80
e 67 82
e 67 83
e 67 84
e 67 86
e 67 88
e 67 90
e 67 91
e 67 94
e 67 95
e 67 98
e 67 99
e 67 100
e 68 69
e 68 70
e 68 71
e 68 77
e 68 80
e 68 82
e 68 83
e 68 84
e 68 85
e 68 87
e 68 88
e 68 90
e 68 91
e 68 92
e 68 93
e 68 94
e 68 96
e 68 97
e 68 100
e 69 71
e 69 72
e 69 75
e 69 78
e 69 79
e 69 84
e 69 85
e 69 88
e 69 89
e 69 91
e 69 96
e 69 97
e 69 98
e 69 99
e 70 71
e 70 72
e 70 73
e 70 74
e 70 75
e 70 76
e 70 77
e 70 79
e 70 82
e 70 83
e 70 84
e 70 85
e 70 86
e 70 87
e 70 89
e 70 90
e 70 92
e 70 94
e 70 95
e 70 97
e 71 72
e 71 75
e 71 76
e 71 77
e 71 78
e 71 79
e 71 81
e 71 83
e 71 85
e 71 86
e 71 88
e 71 89
e 71 90
e 71 92
e 71 94
e 71 97
e 71 98
e 71 100
e 72 73
e 72 74
e 72 75
e 72 76
e 72 77
e 72 78
e 72 79
e 72 82
e 72 83
e 72 84
e 72 85
e 72 86
e 72 87
e 72 89
e 72 90
e 72 91
e 72 92
e 72 94
e 72 95
e 72 96
e 72 97
e 72 98
e 72 100
e 73 74
e 73 76
e 73 77
e 73 78
e 73 81
e 73 83
e 73 84
e 73 85
e 73 87
e 73 89
e 73 90
e 73 91
e 73 92
e 73 93
e 73 96
e 73 97
e 73 98
e 73 100
e 74 75
e 74 76
e 74 77
e 74 81
e 74 82
e 74 83
e 74 85
e 74 86
e 74 87
e 74 89
e 74 90
e 74 93
e 74 96
e 74 98
e 74 99
e 75 77
e 75 84
e 75 86
e 75 88
e 75 92
e 75 93
e 75 96
e 75 97
e 75 98
e 75 99
e 76 77
e 76 79
e 76 80
e 76 81
e 76 82
e 76 84
e 76 86
e 76 89
e 76 92
e 76 94
e 76 97
e 76 99
e 76 100
e 77 79
e 77 81
e 77 83
e 77 84
e 77 85
e 77 86
e 77 87
e 77 88
e 77 89
e 77 92
e 77 93
e 77 95
e 77 96
e 77 97
e 77 98
e 77 99
e 77 100
e 78 79
e 78 80
e 78 81
e 78 84
e 78 85
e 78 86
e 78 87
e 78 89
e 78 90
e 78 91
e 78 94
e 78 96
e 78 97
e 78 98
e 78 99
e 79 80
e 79 81
e 79 82
e 79 84
e 79 87
e 79 88
e 79 90
e 79 91
e 79 93
e 79 95
e 79 96
e 79 97
e 79 98
e 79 100
e 80 85
e 80 89
e 80 91
e 80 92
e 80 94
e 80 95
e 80 96
e 80 98
e 80 99
e 81 82
e 81 83
e 81 84
e 81 87
e 81 89
e 81 91
e 81 93
e 81 94
e 82 83
e 82 85
e 82 87
e 82 89
e 82 90
e 82 91
e 82 92
e 82 94
e 82 96
e 82 97
e 82 98
e 82 99
e 82 100
e 83 85
e 83 86
e 83 88
e 83 90
e 83 92
e 83 93
e 83 94
e 83 95
e 84 85
e 84 86
e 84 87
e 84 89
e 84 90
e 84 92
e 84 93
e 84 95
e 84 96
e 84 97
e 84 99
e 84 100
e 85 88
e 85 91
e 85 92
e 85 95
e 85 96
e 85 97
e 86 88
e 86 89
e 86 90
e 86 91
e 86 92
e 86 93
e 86 94
e 86 100
e 87 89
e 87 91
e 87 95
e 87 97
e 87 98
e 87 100
e 88 89
e 88 90
e 88 91
e 88 92
e 88 93
e 88 94
e 88 95
e 88 96
e 88 97
e 89 90
e 89 92
e 89 93
e 89 94
e 89 95
e 89 96
e 89 97
e 89 98
e 89 99
e 90 91
e 90 92
e 90 93
e 90 94
e 90 95
e 90 97
e 90 99
e 90 100
e 91 92
e 91 93
e 91 96
e 91 97
e 91 99
e 92 95
e 92 96
e 92 97
e 92 98
e 92 99
e 92 100
e 93 94
e 93 97
e 93 98
e 93 99
e 94 95
e 94 97
e 94 98
e 94 99
e 94 100
e 95 96
e 95 97
e 95 99
e 95 100
e 96 99
e 96 100
e 97 98
e 97 100
e 98 100